*SENSE:Minimize
NAME          LP_Problem
ROWS
 N  Objective
 E  Constraint_1
 E  Constraint_2
 E  Constraint_3
 E  Constraint_4
 E  Constraint_5
 E  Constraint_6
 E  Constraint_7
 E  Constraint_8
 E  Constraint_9
 E  Constraint_10
COLUMNS
    x1        Constraint_1   1.000000000000e+00
    x1        Constraint_2   3.000000000000e+00
    x1        Constraint_3   4.000000000000e+00
    x1        Constraint_4   2.000000000000e+00
    x1        Constraint_5   3.000000000000e+00
    x1        Constraint_6   1.000000000000e+00
    x1        Constraint_7   3.000000000000e+00
    x1        Constraint_8   4.000000000000e+00
    x1        Constraint_9   2.000000000000e+00
    x1        Constraint_10   4.000000000000e+00
    x1        Objective  -5.000000000000e+00
    x10       Constraint_4   1.000000000000e+00
    x11       Constraint_5   1.000000000000e+00
    x12       Constraint_6   1.000000000000e+00
    x13       Constraint_7   1.000000000000e+00
    x14       Constraint_8   1.000000000000e+00
    x15       Constraint_9   1.000000000000e+00
    x16       Constraint_10   1.000000000000e+00
    x2        Constraint_1   2.000000000000e+00
    x2        Constraint_2   5.000000000000e+00
    x2        Constraint_3   3.000000000000e+00
    x2        Constraint_4   1.000000000000e+00
    x2        Constraint_5   2.000000000000e+00
    x2        Constraint_6   2.000000000000e+00
    x2        Constraint_7   2.000000000000e+00
    x2        Constraint_8   3.000000000000e+00
    x2        Constraint_9   1.000000000000e+00
    x2        Constraint_10   2.000000000000e+00
    x2        Objective  -4.000000000000e+00
    x3        Constraint_1   2.000000000000e+00
    x3        Constraint_2   1.000000000000e+00
    x3        Constraint_3   2.000000000000e+00
    x3        Constraint_4   7.000000000000e+00
    x3        Constraint_5   1.000000000000e+00
    x3        Constraint_6   5.000000000000e+00
    x3        Constraint_7   1.000000000000e+00
    x3        Constraint_8   2.000000000000e+00
    x3        Constraint_9   4.000000000000e+00
    x3        Constraint_10   1.000000000000e+00
    x3        Objective  -3.000000000000e+00
    x4        Constraint_1   2.000000000000e+00
    x4        Constraint_2   4.000000000000e+00
    x4        Constraint_3   7.000000000000e+00
    x4        Constraint_4   2.000000000000e+00
    x4        Constraint_5   4.000000000000e+00
    x4        Constraint_6   2.000000000000e+00
    x4        Constraint_7   4.000000000000e+00
    x4        Constraint_8   8.000000000000e+00
    x4        Constraint_9   2.000000000000e+00
    x4        Constraint_10   4.000000000000e+00
    x4        Objective  -5.000000000000e+00
    x5        Constraint_1   5.000000000000e+00
    x5        Constraint_2   2.000000000000e+00
    x5        Constraint_3   1.000000000000e+00
    x5        Constraint_4   6.000000000000e+00
    x5        Constraint_5   3.000000000000e+00
    x5        Constraint_6   5.000000000000e+00
    x5        Constraint_7   2.000000000000e+00
    x5        Constraint_8   1.000000000000e+00
    x5        Constraint_9   6.000000000000e+00
    x5        Constraint_10   3.000000000000e+00
    x5        Objective  -8.000000000000e+00
    x6        Constraint_1   4.000000000000e+00
    x6        Constraint_2   2.000000000000e+00
    x6        Constraint_3   3.000000000000e+00
    x6        Constraint_4   1.000000000000e+00
    x6        Constraint_5   7.000000000000e+00
    x6        Constraint_6   1.000000000000e+00
    x6        Constraint_7   7.000000000000e+00
    x6        Constraint_8   6.000000000000e+00
    x6        Constraint_9   5.000000000000e+00
    x6        Constraint_10   3.000000000000e+00
    x6        Objective  -4.000000000000e+00
    x7        Constraint_1   1.000000000000e+00
    x8        Constraint_2   1.000000000000e+00
    x9        Constraint_3   1.000000000000e+00
RHS
    RHS       Constraint_1   9.000000000000e+00
    RHS       Constraint_2   4.000000000000e+00
    RHS       Constraint_3   5.000000000000e+00
    RHS       Constraint_4   8.000000000000e+00
    RHS       Constraint_5   7.000000000000e+00
    RHS       Constraint_6   9.000000000000e+00
    RHS       Constraint_7   6.000000000000e+00
    RHS       Constraint_8   4.000000000000e+00
    RHS       Constraint_9   3.000000000000e+00
    RHS       Constraint_10   4.000000000000e+00
BOUNDS
ENDATA
